
******************************************************************************
This program contains Ipopt, a library for large-scale nonlinear optimization.
 Ipopt is released as open source code under the Eclipse Public License (EPL).
         For more information visit http://projects.coin-or.org/Ipopt
******************************************************************************

This is Ipopt version 3.12.6, running with linear solver ma57.

Number of nonzeros in equality constraint Jacobian...:        0
Number of nonzeros in inequality constraint Jacobian.:        0
Number of nonzeros in Lagrangian Hessian.............:    14997

Total number of variables............................:     5000
                     variables with only lower bounds:        0
                variables with lower and upper bounds:        0
                     variables with only upper bounds:        0
Total number of equality constraints.................:        0
Total number of inequality constraints...............:        0
        inequality constraints with only lower bounds:        0
   inequality constraints with lower and upper bounds:        0
        inequality constraints with only upper bounds:        0

iter    objective    inf_pr   inf_du lg(mu)  ||d||  lg(rg) alpha_du alpha_pr  ls
   0  5.0060000e+03 0.00e+00 1.00e+02  -1.0 0.00e+00    -  0.00e+00 0.00e+00   0
   1  9.8725926e+02 0.00e+00 2.96e+01  -1.0 1.22e+00    -  1.00e+00 1.00e+00f  1
   2  1.9501417e+02 0.00e+00 8.78e+00  -1.0 7.41e-02    -  1.00e+00 1.00e+00f  1
   3  3.8521318e+01 0.00e+00 2.60e+00  -1.0 4.94e-02    -  1.00e+00 1.00e+00f  1
   4  7.6091493e+00 0.00e+00 7.71e-01  -1.0 3.29e-02    -  1.00e+00 1.00e+00f  1
   5  1.5030418e+00 0.00e+00 2.28e-01  -1.7 2.19e-02    -  1.00e+00 1.00e+00f  1
   6  2.9689715e-01 0.00e+00 6.77e-02  -1.7 1.46e-02    -  1.00e+00 1.00e+00f  1
   7  5.8646351e-02 0.00e+00 2.00e-02  -2.5 9.75e-03    -  1.00e+00 1.00e+00f  1
   8  1.1584464e-02 0.00e+00 5.94e-03  -3.8 6.50e-03    -  1.00e+00 1.00e+00f  1
   9  2.2882893e-03 0.00e+00 1.76e-03  -3.8 4.34e-03    -  1.00e+00 1.00e+00f  1
iter    objective    inf_pr   inf_du lg(mu)  ||d||  lg(rg) alpha_du alpha_pr  ls
  10  4.5200776e-04 0.00e+00 5.21e-04  -3.8 2.89e-03    -  1.00e+00 1.00e+00f  1
  11  8.9285483e-05 0.00e+00 1.54e-04  -5.7 1.93e-03    -  1.00e+00 1.00e+00f  1
  12  1.7636639e-05 0.00e+00 4.58e-05  -5.7 1.28e-03    -  1.00e+00 1.00e+00f  1
  13  3.4837805e-06 0.00e+00 1.36e-05  -5.7 8.56e-04    -  1.00e+00 1.00e+00f  1
  14  6.8815417e-07 0.00e+00 4.02e-06  -8.6 5.71e-04    -  1.00e+00 1.00e+00f  1
  15  1.3593169e-07 0.00e+00 1.19e-06  -8.6 3.81e-04    -  1.00e+00 1.00e+00f  1
  16  2.6850704e-08 0.00e+00 3.53e-07  -8.6 2.54e-04    -  1.00e+00 1.00e+00f  1
  17  5.3038427e-09 0.00e+00 1.05e-07  -8.6 1.69e-04    -  1.00e+00 1.00e+00f  1
  18  1.0476726e-09 0.00e+00 3.10e-08  -8.6 1.13e-04    -  1.00e+00 1.00e+00f  1
  19  2.0694768e-10 0.00e+00 9.18e-09  -8.6 7.52e-05    -  1.00e+00 1.00e+00f  1
iter    objective    inf_pr   inf_du lg(mu)  ||d||  lg(rg) alpha_du alpha_pr  ls
  20  4.0878554e-11 0.00e+00 2.72e-09  -9.0 5.01e-05    -  1.00e+00 1.00e+00f  1

Number of Iterations....: 20

                                   (scaled)                 (unscaled)
Objective...............:   2.0443365779857155e-13    4.0878554213402366e-11
Dual infeasibility......:   2.7191775857985085e-09    5.4372675005626970e-07
Constraint violation....:   0.0000000000000000e+00    0.0000000000000000e+00
Complementarity.........:   0.0000000000000000e+00    0.0000000000000000e+00
Overall NLP error.......:   2.7191775857985085e-09    5.4372675005626970e-07


Number of objective function evaluations             = 21
Number of objective gradient evaluations             = 21
Number of equality constraint evaluations            = 0
Number of inequality constraint evaluations          = 0
Number of equality constraint Jacobian evaluations   = 0
Number of inequality constraint Jacobian evaluations = 0
Number of Lagrangian Hessian evaluations             = 20
Total CPU secs in IPOPT (w/o function evaluations)   =      0.050
Total CPU secs in NLP function evaluations           =      0.030

EXIT: Optimal Solution Found.

 ** SUBROUTINE CUTEST_csetup: Warning. The problem has no general constraints. 
 ** Other tools may be preferable ** 

************************ CUTEst statistics ************************


 Package used            :  IPOPT
 Problem                 :  NONDQUAR  
 # variables             =            5000
 # constraints           =               0
 # objective functions   =        0.4300000E+02
 # objective gradients   =        0.2200000E+02
 # objective Hessians    =        0.2100000E+02
 # Hessian-vector prdct  =        0.0000000E+00
 # constraints functions =        0.0000000E+00
 # constraints gradients =        0.0000000E+00
 # constraints Hessians  =        0.0000000E+00
 Exit code               =               0
 Final f                 =   0.4087855E-10
 Set up time             =            0.08 seconds
 Solve time              =            0.25 seconds


******************************************************************

System Time =       0.0610000007 s.
